sat-assignment/q1b.cnf
c This is the expression for K = 0 for question 1 in the assignment
c Rohan Rajesh Kalbag, Roll: 20d170033
p cnf 4 2
-1 -2 -3 4 0
1 -2 -3 -4 0