sat-assignment/q1b.txt
WARNING: for repeatability, setting FPU to use double precision
============================[ Problem Statistics ]=============================
|                                                                             |
|  Number of variables:             4                                         |
|  Number of clauses:               2                                         |
|  Parse time:                   0.00 s                                       |
|                                                                             |
============================[ Search Statistics ]==============================
| Conflicts |          ORIGINAL         |          LEARNT          | Progress |
|           |    Vars  Clauses Literals |    Limit  Clauses Lit/Cl |          |
===============================================================================
===============================================================================
restarts              : 1
conflicts             : 0              (0 /sec)
decisions             : 5              (0.00 % random) (6173 /sec)
propagations          : 4              (4938 /sec)
conflict literals     : 0              (-nan % deleted)
Memory used           : 6.00 MB
CPU time              : 0.00081 s

SATISFIABLE
